Maximize
totalProtein
Subject To
4.0 wildRice + 3.0 wildRice2 + 19.0 buckwheatGroats + 9.3 amaranth + 22.0 millet + 5.0 oats + 5.4 buckwheatGroats2 + -totalProtein = 0
101.0 wildRice + 150.0 wildRice2 + 568.0 buckwheatGroats + 251.0 amaranth + 286.0 millet + 140.0 oats + 177.0 buckwheatGroats2 + -totalCalories = 0
5.0 wildRice + 4.0 wildRice2 + 10.0 buckwheatGroats + 3.0 amaranth + 5.0 millet + 2.0 oats + 1.5 buckwheatGroats2 + -totalCost = 0
totalCalories >= 2000
totalCost <= 20
End